2
1000 3
48
256 1 1
257 1 1
258 1 2
260 1 1
406 1 1
262 1 1
264 1 2
266 1 1
267 1 1
268 1 1
269 1 1
270 1 1
403 1 1
278 1 2
279 1 2
281 1 1
411 1 1
285 1 2
290 1 1
292 1 1
294 1 2
425 1 1
428 1 1
302 1 1
306 1 1
436 1 1
309 1 1
394 1 1
437 1 1
453 1 1
455 1 1
459 1 2
333 1 1
467 1 1
469 1 1
342 1 1
478 1 1
355 1 1
422 1 1
489 1 1
492 1 1
495 1 1
496 1 1
250 1 2
251 1 3
253 1 1
254 1 1
255 1 3
